(set-info :status sat)
(declare-const symbol_90 (_ BitVec 32))
(declare-const symbol_71 (_ BitVec 32))
(declare-const symbol_35 (_ BitVec 32))
(declare-const symbol_25 (_ BitVec 32))
(declare-const symbol_27 (_ BitVec 32))
(declare-const symbol_73 (_ BitVec 32))
(declare-const symbol_42 (_ BitVec 32))
(declare-const symbol_58 (_ BitVec 32))
(declare-const symbol_33 (_ BitVec 32))
(declare-const symbol_77 (_ BitVec 32))
(declare-const symbol_60 (_ BitVec 32))
(declare-const symbol_84 (_ BitVec 32))
(declare-const symbol_75 (_ BitVec 32))
(declare-const symbol_29 (_ BitVec 32))
(declare-const symbol_23 (_ BitVec 32))
(declare-const symbol_15 (_ BitVec 32))
(declare-const symbol_0 (_ BitVec 32))
(declare-const symbol_92 (_ BitVec 32))
(declare-const symbol_44 (_ BitVec 32))
(declare-const symbol_64 (_ BitVec 32))
(declare-const symbol_11 (_ BitVec 32))
(declare-const symbol_3 (_ BitVec 32))
(declare-const symbol_46 (_ BitVec 32))
(declare-const symbol_38 (_ BitVec 32))
(declare-const symbol_6 (_ BitVec 32))
(declare-const symbol_1 (_ BitVec 32))
(declare-const symbol_94 (_ BitVec 32))
(declare-const symbol_79 (_ BitVec 32))
(declare-const symbol_62 (_ BitVec 32))
(declare-const symbol_97 (_ BitVec 32))
(declare-const symbol_50 (_ BitVec 32))
(declare-const symbol_18 (_ BitVec 32))
(declare-const symbol_66 (_ BitVec 32))
(declare-const symbol_40 (_ BitVec 32))
(declare-const symbol_21 (_ BitVec 32))
(declare-const symbol_88 (_ BitVec 32))
(declare-const symbol_99 (_ BitVec 32))
(declare-const symbol_101 (_ BitVec 32))
(declare-const symbol_86 (_ BitVec 32))
(declare-const symbol_31 (_ BitVec 32))
(declare-const symbol_13 (_ BitVec 32))
(declare-const symbol_53 (_ BitVec 32))
(declare-const symbol_56 (_ BitVec 32))
(declare-const symbol_69 (_ BitVec 32))
(declare-const symbol_8 (_ BitVec 32))
(declare-const symbol_81 (_ BitVec 32))
(declare-const symbol_48 (_ BitVec 32))
(assert (not (= symbol_101 (_ bv4 32))))
(assert (not (not (= symbol_101 (_ bv5 32)))))
(assert (not (not (= symbol_99 (_ bv5 32)))))
(assert (not (not (= symbol_97 (_ bv5 32)))))
(assert (not (not (= symbol_94 (_ bv5 32)))))
(assert (not (not (= symbol_92 (_ bv5 32)))))
(assert (not (not (= symbol_90 (_ bv5 32)))))
(assert (not (not (= symbol_88 (_ bv5 32)))))
(assert (not (not (= symbol_86 (_ bv5 32)))))
(assert (not (not (= symbol_84 (_ bv5 32)))))
(assert (not (not (= symbol_81 (_ bv5 32)))))
(assert (not (not (= symbol_79 (_ bv5 32)))))
(assert (not (not (= symbol_77 (_ bv5 32)))))
(assert (not (not (= symbol_75 (_ bv5 32)))))
(assert (not (not (= symbol_73 (_ bv5 32)))))
(assert (not (not (= symbol_71 (_ bv5 32)))))
(assert (not (not (= symbol_69 (_ bv5 32)))))
(assert (not (not (= symbol_66 (_ bv5 32)))))
(assert (not (not (= symbol_64 (_ bv5 32)))))
(assert (not (not (= symbol_62 (_ bv5 32)))))
(assert (not (not (= symbol_60 (_ bv5 32)))))
(assert (not (not (= symbol_58 (_ bv5 32)))))
(assert (not (not (= symbol_56 (_ bv5 32)))))
(assert (not (not (= symbol_53 (_ bv5 32)))))
(assert (not (not (= symbol_50 (_ bv5 32)))))
(assert (not (not (= symbol_48 (_ bv5 32)))))
(assert (not (not (= symbol_46 (_ bv5 32)))))
(assert (not (not (= symbol_44 (_ bv5 32)))))
(assert (not (not (= symbol_42 (_ bv5 32)))))
(assert (not (not (= symbol_40 (_ bv5 32)))))
(assert (not (not (= symbol_38 (_ bv5 32)))))
(assert (not (not (= symbol_35 (_ bv5 32)))))
(assert (not (not (= symbol_33 (_ bv5 32)))))
(assert (not (not (= symbol_31 (_ bv5 32)))))
(assert (not (not (= symbol_29 (_ bv5 32)))))
(assert (not (not (= symbol_27 (_ bv5 32)))))
(assert (not (not (= symbol_25 (_ bv5 32)))))
(assert (not (not (= symbol_23 (_ bv5 32)))))
(assert (not (not (= symbol_21 (_ bv5 32)))))
(assert (not (not (= symbol_18 (_ bv5 32)))))
(assert (not (not (= symbol_15 (_ bv5 32)))))
(assert (not (not (= symbol_13 (_ bv5 32)))))
(assert (not (not (= symbol_11 (_ bv5 32)))))
(assert (not (not (= symbol_8 (_ bv5 32)))))
(assert (not (not (= symbol_6 (_ bv5 32)))))
(assert (not (not (= symbol_3 (_ bv5 32)))))
(assert (not (not (= symbol_1 (_ bv5 32)))))
(assert (not (not (= symbol_0 (_ bv5 32)))))
(check-sat)